; quart :: corpus-study/repo_src/quart/src/quart/wrappers/request.py :: wait_for at get_data:279 :: structured encoding (verdict: sat)
; Generated by snf-pipeline (encoder.py) -- run with any
; SMT-LIB2-compliant solver, e.g. `z3 quart__corpus-study_repo_src_quart_src_quart_wrappers_request.py__waitfor_get_data_L279__structured.smt2`
; benchmark generated from python API
(set-info :status unknown)
(declare-fun timeout_fires () Bool)
(declare-fun completes_first () Bool)
(declare-fun cleanup_ran () Bool)
(assert
 (or completes_first timeout_fires))
(assert
 (let (($x27 (not cleanup_ran)))
(and timeout_fires $x27)))
(check-sat)
